c   #vars: 75   #clauses: 344   #literals: 958
c 
p cnf 75 344
-1 -2 0
43 44 55 56 0
9 10 -19 33 0
-3 -4 0
-5 -6 0
-7 -8 0
9 10 65 66 0
-9 -10 0
-11 -12 0
-13 -14 0
-15 -16 0
-17 -18 0
-19 -20 0
9 10 41 42 0
-11 40 -51 62 0
-21 -22 0
11 12 -19 33 0
-24 -25 0
-26 -27 0
-28 -29 0
-31 -32 0
45 53 54 -65 0
-34 -35 0
21 22 65 66 0
11 12 40 -62 0
-36 -37 0
-38 -39 0
5 6 -38 61 0
5 6 45 -65 0
9 10 -28 71 0
-17 30 69 70 0
-41 -42 0
-28 43 44 71 0
-43 -44 0
34 35 59 60 0
-46 -47 0
-48 -49 0
-50 -51 0
31 32 -51 62 0
-53 -54 0
-55 -56 0
-57 -58 0
-59 -60 0
-9 28 29 71 0
-63 -64 0
-65 -66 0
5 6 67 68 0
-67 -68 0
-69 -70 0
1 2 72 73 0
-72 -73 0
-74 -75 0
15 16 69 70 0
-1 -43 0
-2 -44 0
48 49 55 56 0
-1 -46 0
-2 -47 0
36 37 65 66 0
-1 -59 0
-2 -60 0
15 16 50 51 0
-1 -63 0
-2 -64 0
1 2 59 60 0
-1 -72 0
-2 -73 0
15 16 26 27 0
-1 -74 0
-2 -75 0
9 10 -11 33 0
-15 38 39 61 0
-5 38 39 61 0
23 -36 72 73 0
-3 -36 0
-4 -37 0
-3 -43 0
-4 -44 0
1 2 43 44 0
-3 -53 0
-4 -54 0
11 12 57 58 0
-3 -57 0
-4 -58 0
24 25 34 35 0
-5 -28 0
-6 -29 0
19 20 38 39 0
-5 -36 0
-6 -37 0
-5 -41 0
-6 -42 0
17 18 67 68 0
-6 -45 0
-7 28 29 71 0
-6 -61 0
5 6 72 73 0
-5 -67 0
-6 -68 0
1 2 46 47 0
-5 -72 0
-6 -73 0
5 6 41 42 0
-7 -26 0
-8 -27 0
21 22 40 -62 0
-7 -48 0
-8 -49 0
17 18 43 44 0
-7 -59 0
-8 -60 0
48 49 63 64 0
-8 -71 0
19 20 57 58 0
28 29 57 58 0
24 25 28 29 0
-9 -26 0
-10 -27 0
9 10 -21 52 0
-5 45 53 54 0
-10 -33 0
36 37 55 56 0
-9 -34 0
-10 -35 0
9 10 26 27 0
-9 -41 0
-10 -42 0
31 32 -40 62 0
-10 -52 0
31 32 67 68 0
-9 -53 0
-10 -54 0
48 49 69 70 0
-9 -65 0
-10 -66 0
-10 -71 0
46 47 67 68 0
45 -53 65 66 0
-12 -33 0
5 6 -15 61 0
-12 -40 0
15 16 63 64 0
48 49 67 68 0
23 36 37 -72 0
15 16 67 68 0
-11 -53 0
-12 -54 0
46 47 59 60 0
-11 -57 0
-12 -58 0
-11 -63 0
-12 -64 0
38 39 69 70 0
-11 -65 0
-12 -66 0
-13 -31 0
-14 -32 0
-13 -38 0
-14 -39 0
11 12 63 64 0
9 10 -43 71 0
23 36 37 -53 0
7 8 59 60 0
-13 -43 0
-14 -44 0
-11 -32 40 62 0
-13 -57 0
-14 -58 0
-15 -26 0
-16 -27 0
-21 -32 40 62 0
-15 -50 0
-16 -51 0
9 10 -41 52 0
7 8 -43 71 0
-16 -61 0
31 32 69 70 0
-15 -63 0
-16 -64 0
13 14 31 32 0
-15 -67 0
-16 -68 0
-15 -69 0
-16 -70 0
1 2 74 75 0
-18 -30 0
30 -59 69 70 0
-17 -34 0
-18 -35 0
-17 -43 0
-18 -44 0
21 22 72 73 0
-17 -67 0
-18 -68 0
11 12 53 54 0
-5 45 65 66 0
-20 -33 0
7 8 26 27 0
-19 -38 0
-20 -39 0
9 10 34 35 0
-19 -41 0
-20 -42 0
46 47 74 75 0
-19 -50 0
-20 -51 0
31 32 55 56 0
-19 -57 0
-20 -58 0
17 18 30 -69 0
24 25 63 64 0
17 18 30 -59 0
28 29 53 54 0
-21 -31 0
-22 -32 0
-11 21 22 40 0
7 8 -9 71 0
-22 -40 0
5 6 36 37 0
-21 -41 0
-22 -42 0
23 -36 53 54 0
-21 -50 0
-22 -51 0
-40 50 51 62 0
-22 -52 0
-21 -65 0
-22 -66 0
5 6 45 -53 0
-21 -72 0
-22 -73 0
-21 -74 0
-22 -75 0
21 22 31 32 0
-9 11 12 33 0
-23 -37 0
1 2 63 64 0
-11 19 20 33 0
-23 -54 0
21 22 74 75 0
-9 19 20 33 0
-23 -73 0
-24 -28 0
-25 -29 0
30 59 60 -69 0
-24 -34 0
-25 -35 0
-5 15 16 61 0
-24 -50 0
-25 -51 0
13 14 43 44 0
-24 -63 0
-25 -64 0
-7 9 10 71 0
-26 -63 0
-27 -64 0
3 4 43 44 0
-26 -74 0
-27 -75 0
17 18 34 35 0
-28 -53 0
-29 -54 0
26 27 74 75 0
-28 -57 0
-29 -58 0
26 27 63 64 0
-9 41 42 52 0
-29 -71 0
-30 -60 0
-21 40 -51 62 0
-30 -70 0
15 16 -38 61 0
-31 -55 0
-32 -56 0
23 -53 72 73 0
-31 -62 0
3 4 53 54 0
-31 -67 0
-32 -68 0
-31 -69 0
-32 -70 0
3 4 36 37 0
-34 -59 0
-35 -60 0
-34 -63 0
-35 -64 0
3 4 57 58 0
-9 21 22 52 0
13 14 57 58 0
21 22 -41 52 0
43 44 74 75 0
-36 -55 0
-37 -56 0
13 14 38 39 0
-36 -65 0
-37 -66 0
23 53 54 -72 0
7 8 -28 71 0
-39 -61 0
19 20 41 42 0
-38 -69 0
-39 -70 0
34 35 63 64 0
-38 -72 0
-39 -73 0
11 12 -21 40 0
28 29 -43 71 0
21 22 50 51 0
-32 50 51 62 0
-42 -52 0
-43 -55 0
-44 -56 0
-9 43 44 71 0
38 39 72 73 0
-21 41 42 52 0
-44 -71 0
9 10 53 54 0
-43 -74 0
-44 -75 0
-7 43 44 71 0
-45 -54 0
-45 -66 0
-17 30 59 60 0
7 8 48 49 0
-46 -59 0
-47 -60 0
21 22 41 42 0
-46 -67 0
-47 -68 0
5 6 28 29 0
-46 -74 0
-47 -75 0
11 12 65 66 0
-48 -55 0
-49 -56 0
19 20 50 51 0
-48 -63 0
-49 -64 0
-48 -67 0
-49 -68 0
24 25 50 51 0
-48 -69 0
-49 -70 0
-50 -62 0
